(set-info :source |printed by MathSAT|)
(declare-fun A_16 () Int)
(declare-fun .x.699 () Int)
(declare-fun F1_7 () (Array Int Int))
(declare-fun .x.700 () (Array Int Int))
(declare-fun C_16 () (Array Int Int))
(declare-fun .x.701 () (Array Int Int))
(declare-fun D_16 () (Array Int (Array Int Int)))
(declare-fun .x.702 () (Array Int (Array Int Int)))
(declare-fun E_16 () (Array Int (Array Int Int)))
(declare-fun .x.703 () (Array Int (Array Int Int)))
(declare-fun F_16 () Int)
(declare-fun .x.704 () Int)
(declare-fun G_16 () Int)
(declare-fun .x.705 () Int)
(declare-fun H_16 () (Array Int Int))
(declare-fun .x.706 () (Array Int Int))
(declare-fun I_16 () (Array Int Int))
(declare-fun .x.707 () (Array Int Int))
(declare-fun J_16 () Int)
(declare-fun .x.708 () Int)
(declare-fun K_16 () Int)
(declare-fun .x.709 () Int)
(declare-fun L_16 () Int)
(declare-fun .x.710 () Int)
(declare-fun G1_6 () Int)
(declare-fun .x.711 () Int)
(declare-fun N_16 () Int)
(declare-fun .x.712 () Int)
(declare-fun O_16 () Int)
(declare-fun .x.713 () Int)
(declare-fun P_16 () Int)
(declare-fun .x.714 () Int)
(declare-fun Q_16 () Int)
(declare-fun .x.715 () Int)
(declare-fun R_16 () Int)
(declare-fun .x.716 () Int)
(declare-fun S_16 () Int)
(declare-fun .x.717 () Int)
(declare-fun T_16 () Int)
(declare-fun .x.718 () Int)
(declare-fun H1_2 () Int)
(declare-fun .x.719 () Int)
(declare-fun V_16 () Int)
(declare-fun .x.720 () Int)
(declare-fun W_16 () Int)
(declare-fun .x.721 () Int)
(declare-fun I1_0 () Int)
(declare-fun .x.722 () Int)
(declare-fun Y_16 () Int)
(declare-fun .x.723 () Int)
(declare-fun J1_0 () Int)
(declare-fun .x.724 () Int)
(declare-fun K1_0 () Int)
(declare-fun .x.725 () Int)
(declare-fun B1_16 () Int)
(declare-fun .x.726 () Int)
(declare-fun C1_16 () Int)
(declare-fun .x.727 () Int)
(declare-fun D1_16 () Int)
(declare-fun .x.728 () Int)
(declare-fun E1_16 () Bool)
(declare-fun .x.729 () Bool)
(declare-fun .loc.5 () Bool)
(declare-fun .loc.9 () Bool)
(declare-fun .loc.6 () Bool)
(declare-fun .loc.10 () Bool)
(declare-fun .loc.7 () Bool)
(declare-fun .loc.11 () Bool)
(declare-fun .loc.8 () Bool)
(declare-fun .loc.12 () Bool)
(declare-fun F1_0 () (Array Int Int))
(define-fun .def_8 () Int (! A_16 :next |.x.699|))
(define-fun .def_10 () (Array Int Int) (! F1_7 :next |.x.700|))
(define-fun .def_12 () (Array Int Int) (! C_16 :next |.x.701|))
(define-fun .def_14 () (Array Int (Array Int Int)) (! D_16 :next |.x.702|))
(define-fun .def_16 () (Array Int (Array Int Int)) (! E_16 :next |.x.703|))
(define-fun .def_18 () Int (! F_16 :next |.x.704|))
(define-fun .def_20 () Int (! G_16 :next |.x.705|))
(define-fun .def_22 () (Array Int Int) (! H_16 :next |.x.706|))
(define-fun .def_24 () (Array Int Int) (! I_16 :next |.x.707|))
(define-fun .def_26 () Int (! J_16 :next |.x.708|))
(define-fun .def_28 () Int (! K_16 :next |.x.709|))
(define-fun .def_30 () Int (! L_16 :next |.x.710|))
(define-fun .def_32 () Int (! G1_6 :next |.x.711|))
(define-fun .def_34 () Int (! N_16 :next |.x.712|))
(define-fun .def_36 () Int (! O_16 :next |.x.713|))
(define-fun .def_38 () Int (! P_16 :next |.x.714|))
(define-fun .def_40 () Int (! Q_16 :next |.x.715|))
(define-fun .def_42 () Int (! R_16 :next |.x.716|))
(define-fun .def_44 () Int (! S_16 :next |.x.717|))
(define-fun .def_46 () Int (! T_16 :next |.x.718|))
(define-fun .def_48 () Int (! H1_2 :next |.x.719|))
(define-fun .def_50 () Int (! V_16 :next |.x.720|))
(define-fun .def_52 () Int (! W_16 :next |.x.721|))
(define-fun .def_54 () Int (! I1_0 :next |.x.722|))
(define-fun .def_56 () Int (! Y_16 :next |.x.723|))
(define-fun .def_58 () Int (! J1_0 :next |.x.724|))
(define-fun .def_60 () Int (! K1_0 :next |.x.725|))
(define-fun .def_62 () Int (! B1_16 :next |.x.726|))
(define-fun .def_64 () Int (! C1_16 :next |.x.727|))
(define-fun .def_66 () Int (! D1_16 :next |.x.728|))
(define-fun .def_68 () Bool (! E1_16 :next |.x.729|))
(define-fun .def_70 () Bool (! .loc.5 :next |.loc.9|))
(define-fun .def_72 () Bool (! .loc.6 :next |.loc.10|))
(define-fun .def_74 () Bool (! .loc.7 :next |.loc.11|))
(define-fun .def_76 () Bool (! .loc.8 :next |.loc.12|))
(define-fun .def_105 () (Array Int Int) (! F1_0 :next |.xtv.1|))
(define-fun .def_681 () Bool (and .def_70 .def_72))
(define-fun .def_87 () Bool (not .def_74))
(define-fun .def_682 () Bool (and .def_87 .def_681))
(define-fun .def_96 () Bool (not .def_76))
(define-fun .def_683 () Bool (and .def_96 .def_682))
(define-fun .def_675 () Bool (= .def_14 .def_16))
(define-fun .def_674 () Bool (not .def_68))
(define-fun .def_676 () Bool (and .def_674 .def_675))
(define-fun .def_673 () Bool (= .def_18 .def_20))
(define-fun .def_677 () Bool (and .def_673 .def_676))
(define-fun .def_672 () Bool (= .def_26 .def_28))
(define-fun .def_678 () Bool (and .def_672 .def_677))
(define-fun .def_671 () Bool (= .def_22 .def_24))
(define-fun .def_679 () Bool (and .def_671 .def_678))
(define-fun .def_670 () Bool (= .def_10 .def_12))
(define-fun .def_680 () Bool (and .def_670 .def_679))
(define-fun .def_684 () Bool (! (and .def_680 .def_683) :init true))
(define-fun .def_667 () Bool (= .def_28 .x.709))
(define-fun .def_665 () Bool (= .def_24 .x.707))
(define-fun .def_663 () Bool (= .def_20 .x.705))
(define-fun .def_661 () Bool (= .def_16 .x.703))
(define-fun .def_659 () Bool (= .def_8 .x.699))
(define-fun .def_658 () Bool (= .def_12 .x.701))
(define-fun .def_660 () Bool (and .def_658 .def_659))
(define-fun .def_662 () Bool (and .def_660 .def_661))
(define-fun .def_664 () Bool (and .def_662 .def_663))
(define-fun .def_666 () Bool (and .def_664 .def_665))
(define-fun .def_668 () Bool (and .def_666 .def_667))
(define-fun .def_90 () Bool (not .loc.9))
(define-fun .def_630 () Bool (and .loc.10 .def_90))
(define-fun .def_625 () Bool (= .x.718 .x.725))
(define-fun .def_626 () Bool (or .x.729 .def_625))
(define-fun .def_615 () (Array Int Int) (store .def_10 .def_48 0))
(define-fun .def_616 () (Array Int Int) (store .def_615 .def_58 0))
(define-fun .def_617 () Bool (= .x.700 .def_616))
(define-fun .def_614 () Bool (= .x.725 0))
(define-fun .def_618 () Bool (and .def_614 .def_617))
(define-fun .def_619 () Bool (or .def_68 .def_618))
(define-fun .def_78 () Bool (= .def_34 .x.712))
(define-fun .def_620 () Bool (and .def_78 .def_619))
(define-fun .def_161 () Bool (= .def_56 .x.723))
(define-fun .def_621 () Bool (and .def_161 .def_620))
(define-fun .def_81 () Bool (= .def_62 .x.726))
(define-fun .def_622 () Bool (and .def_81 .def_621))
(define-fun .def_164 () Bool (= .def_64 .x.727))
(define-fun .def_623 () Bool (and .def_164 .def_622))
(define-fun .def_83 () Bool (= .def_68 .x.729))
(define-fun .def_624 () Bool (and .def_83 .def_623))
(define-fun .def_627 () Bool (and .def_624 .def_626))
(define-fun .def_628 () Bool (and .def_70 .def_627))
(define-fun .def_471 () Int (* 4 .x.720))
(define-fun .def_484 () Int (+ .def_471 .x.722))
(define-fun .def_483 () (Array Int Int) (select .x.702 .x.719))
(define-fun .def_485 () Int (select .def_483 .def_484))
(define-fun .def_486 () Bool (= .x.727 .def_485))
(define-fun .def_481 () Bool (= .x.712 .x.726))
(define-fun .def_487 () Bool (and .def_481 .def_486))
(define-fun .def_478 () Bool (= .x.723 .x.727))
(define-fun .def_479 () Int (ite .def_478 1 0))
(define-fun .def_480 () Bool (= .x.726 .def_479))
(define-fun .def_488 () Bool (and .def_480 .def_487))
(define-fun .def_476 () Bool (= .x.717 .x.720))
(define-fun .def_477 () Bool (not .def_476))
(define-fun .def_489 () Bool (and .def_477 .def_488))
(define-fun .def_472 () Int (+ .x.711 .def_471))
(define-fun .def_473 () (Array Int Int) (select .x.702 .x.724))
(define-fun .def_474 () Int (select .def_473 .def_472))
(define-fun .def_475 () Bool (= .x.723 .def_474))
(define-fun .def_490 () Bool (and .def_475 .def_489))
(define-fun .def_604 () Bool (or .def_68 .def_490))
(define-fun .def_467 () Bool (= .x.712 0))
(define-fun .def_602 () Bool (or .def_68 .def_467))
(define-fun .def_174 () Bool (not .def_70))
(define-fun .def_601 () Bool (and .x.729 .def_174))
(define-fun .def_603 () Bool (and .def_601 .def_602))
(define-fun .def_605 () Bool (and .def_603 .def_604))
(define-fun .def_176 () Bool (= .def_60 .x.725))
(define-fun .def_606 () Bool (and .def_176 .def_605))
(define-fun .def_178 () Bool (= .def_58 .x.724))
(define-fun .def_607 () Bool (and .def_178 .def_606))
(define-fun .def_180 () Bool (= .def_54 .x.722))
(define-fun .def_608 () Bool (and .def_180 .def_607))
(define-fun .def_182 () Bool (= .def_48 .x.719))
(define-fun .def_609 () Bool (and .def_182 .def_608))
(define-fun .def_92 () Bool (= .def_46 .x.718))
(define-fun .def_610 () Bool (and .def_92 .def_609))
(define-fun .def_185 () Bool (= .def_32 .x.711))
(define-fun .def_611 () Bool (and .def_185 .def_610))
(define-fun .def_187 () Bool (= .def_10 .x.700))
(define-fun .def_612 () Bool (and .def_187 .def_611))
(define-fun .def_443 () Bool (<= 200000 .def_50))
(define-fun .def_444 () Bool (not .def_443))
(define-fun .def_445 () Bool (or .def_68 .def_444))
(define-fun .def_613 () Bool (and .def_445 .def_612))
(define-fun .def_629 () Bool (or .def_613 .def_628))
(define-fun .def_631 () Bool (and .def_629 .def_630))
(define-fun .def_404 () Bool (and .def_68 .def_78))
(define-fun .def_587 () Bool (and .def_161 .def_404))
(define-fun .def_588 () Bool (and .def_81 .def_587))
(define-fun .def_589 () Bool (and .def_164 .def_588))
(define-fun .def_590 () Bool (and .def_83 .def_589))
(define-fun .def_591 () Bool (and .loc.9 .def_590))
(define-fun .def_592 () Bool (and .def_174 .def_591))
(define-fun .def_593 () Bool (and .def_176 .def_592))
(define-fun .def_594 () Bool (and .def_178 .def_593))
(define-fun .def_595 () Bool (and .def_180 .def_594))
(define-fun .def_596 () Bool (and .def_182 .def_595))
(define-fun .def_597 () Bool (and .def_92 .def_596))
(define-fun .def_598 () Bool (and .def_185 .def_597))
(define-fun .def_599 () Bool (and .def_187 .def_598))
(define-fun .def_94 () Bool (not .loc.10))
(define-fun .def_600 () Bool (and .def_94 .def_599))
(define-fun .def_632 () Bool (or .def_600 .def_631))
(define-fun .def_585 () Bool (or .def_68 .def_443))
(define-fun .def_553 () Bool (and .def_78 .def_161))
(define-fun .def_554 () Bool (and .def_81 .def_553))
(define-fun .def_555 () Bool (and .def_164 .def_554))
(define-fun .def_556 () Bool (and .def_83 .def_555))
(define-fun .def_575 () Bool (and .loc.9 .def_556))
(define-fun .def_576 () Bool (and .def_174 .def_575))
(define-fun .def_577 () Bool (and .def_176 .def_576))
(define-fun .def_578 () Bool (and .def_178 .def_577))
(define-fun .def_579 () Bool (and .def_180 .def_578))
(define-fun .def_580 () Bool (and .def_182 .def_579))
(define-fun .def_581 () Bool (and .def_92 .def_580))
(define-fun .def_582 () Bool (and .def_185 .def_581))
(define-fun .def_583 () Bool (and .def_187 .def_582))
(define-fun .def_584 () Bool (and .def_94 .def_583))
(define-fun .def_586 () Bool (and .def_584 .def_585))
(define-fun .def_633 () Bool (or .def_586 .def_632))
(define-fun .def_159 () Bool (= .def_52 .x.721))
(define-fun .def_157 () Bool (= .def_50 .x.720))
(define-fun .def_573 () Bool (and .def_157 .def_159))
(define-fun .def_574 () Bool (and .def_76 .def_573))
(define-fun .def_634 () Bool (and .def_574 .def_633))
(define-fun .def_568 () Int (* (- 1) .x.720))
(define-fun .def_569 () Int (+ .def_50 .def_568))
(define-fun .def_570 () Bool (= .def_569 (- 1)))
(define-fun .def_571 () Bool (or .def_68 .def_570))
(define-fun .def_557 () Bool (and .def_70 .def_556))
(define-fun .def_558 () Bool (and .def_90 .def_557))
(define-fun .def_559 () Bool (and .def_176 .def_558))
(define-fun .def_560 () Bool (and .def_178 .def_559))
(define-fun .def_561 () Bool (and .def_180 .def_560))
(define-fun .def_562 () Bool (and .def_182 .def_561))
(define-fun .def_563 () Bool (and .def_92 .def_562))
(define-fun .def_564 () Bool (and .def_185 .def_563))
(define-fun .def_565 () Bool (and .def_187 .def_564))
(define-fun .def_566 () Bool (and .def_94 .def_565))
(define-fun .def_567 () Bool (and .def_96 .def_566))
(define-fun .def_572 () Bool (and .def_567 .def_571))
(define-fun .def_635 () Bool (or .def_572 .def_634))
(define-fun .def_636 () Bool (and .loc.12 .def_635))
(define-fun .def_537 () Bool (and .def_78 .def_157))
(define-fun .def_538 () Bool (and .def_159 .def_537))
(define-fun .def_539 () Bool (and .def_81 .def_538))
(define-fun .def_540 () Bool (and .def_83 .def_539))
(define-fun .def_541 () Bool (and .loc.9 .def_540))
(define-fun .def_542 () Bool (and .def_174 .def_541))
(define-fun .def_543 () Bool (and .def_176 .def_542))
(define-fun .def_544 () Bool (and .def_178 .def_543))
(define-fun .def_545 () Bool (and .def_180 .def_544))
(define-fun .def_546 () Bool (and .def_182 .def_545))
(define-fun .def_547 () Bool (and .def_92 .def_546))
(define-fun .def_548 () Bool (and .def_185 .def_547))
(define-fun .def_549 () Bool (and .def_187 .def_548))
(define-fun .def_550 () Bool (and .def_94 .def_549))
(define-fun .def_551 () Bool (and .def_96 .def_550))
(define-fun .def_98 () Bool (not .loc.12))
(define-fun .def_552 () Bool (and .def_98 .def_551))
(define-fun .def_637 () Bool (or .def_552 .def_636))
(define-fun .def_170 () Bool (not .def_72))
(define-fun .def_155 () Bool (= .def_44 .x.717))
(define-fun .def_535 () Bool (and .def_155 .def_170))
(define-fun .def_536 () Bool (and .def_87 .def_535))
(define-fun .def_638 () Bool (and .def_536 .def_637))
(define-fun .def_531 () Bool (= .x.717 150001))
(define-fun .def_529 () Bool (= .x.720 0))
(define-fun .def_532 () Bool (and .def_529 .def_531))
(define-fun .def_533 () Bool (or .def_68 .def_532))
(define-fun .def_510 () Bool (and .def_78 .def_159))
(define-fun .def_511 () Bool (and .def_161 .def_510))
(define-fun .def_512 () Bool (and .def_81 .def_511))
(define-fun .def_513 () Bool (and .def_164 .def_512))
(define-fun .def_514 () Bool (and .def_83 .def_513))
(define-fun .def_515 () Bool (and .def_70 .def_514))
(define-fun .def_516 () Bool (and .def_72 .def_515))
(define-fun .def_517 () Bool (and .def_74 .def_516))
(define-fun .def_518 () Bool (and .loc.12 .def_517))
(define-fun .def_519 () Bool (and .def_90 .def_518))
(define-fun .def_520 () Bool (and .def_176 .def_519))
(define-fun .def_521 () Bool (and .def_178 .def_520))
(define-fun .def_522 () Bool (and .def_180 .def_521))
(define-fun .def_523 () Bool (and .def_182 .def_522))
(define-fun .def_524 () Bool (and .def_92 .def_523))
(define-fun .def_525 () Bool (and .def_185 .def_524))
(define-fun .def_526 () Bool (and .def_187 .def_525))
(define-fun .def_527 () Bool (and .def_94 .def_526))
(define-fun .def_528 () Bool (and .def_96 .def_527))
(define-fun .def_534 () Bool (and .def_528 .def_533))
(define-fun .def_639 () Bool (or .def_534 .def_638))
(define-fun .def_508 () Bool (or .x.729 .def_476))
(define-fun .def_364 () Bool (and .def_78 .def_155))
(define-fun .def_365 () Bool (and .def_157 .def_364))
(define-fun .def_366 () Bool (and .def_159 .def_365))
(define-fun .def_367 () Bool (and .def_161 .def_366))
(define-fun .def_368 () Bool (and .def_81 .def_367))
(define-fun .def_369 () Bool (and .def_164 .def_368))
(define-fun .def_370 () Bool (and .def_83 .def_369))
(define-fun .def_493 () Bool (and .def_76 .def_370))
(define-fun .def_494 () Bool (and .def_170 .def_493))
(define-fun .def_495 () Bool (and .def_87 .def_494))
(define-fun .def_496 () Bool (and .loc.9 .def_495))
(define-fun .def_497 () Bool (and .def_174 .def_496))
(define-fun .def_498 () Bool (and .def_176 .def_497))
(define-fun .def_499 () Bool (and .def_178 .def_498))
(define-fun .def_500 () Bool (and .def_180 .def_499))
(define-fun .def_501 () Bool (and .def_182 .def_500))
(define-fun .def_502 () Bool (and .def_92 .def_501))
(define-fun .def_503 () Bool (and .def_185 .def_502))
(define-fun .def_504 () Bool (and .def_187 .def_503))
(define-fun .def_505 () Bool (and .def_445 .def_504))
(define-fun .def_506 () Bool (and .def_94 .def_505))
(define-fun .def_507 () Bool (and .def_98 .def_506))
(define-fun .def_509 () Bool (and .def_507 .def_508))
(define-fun .def_640 () Bool (or .def_509 .def_639))
(define-fun .def_491 () Bool (or .x.729 .def_490))
(define-fun .def_468 () Bool (not .def_467))
(define-fun .def_469 () Bool (or .x.729 .def_468))
(define-fun .def_449 () Bool (and .def_155 .def_157))
(define-fun .def_450 () Bool (and .def_159 .def_449))
(define-fun .def_451 () Bool (and .def_83 .def_450))
(define-fun .def_452 () Bool (and .def_76 .def_451))
(define-fun .def_453 () Bool (and .def_170 .def_452))
(define-fun .def_454 () Bool (and .def_87 .def_453))
(define-fun .def_455 () Bool (and .def_90 .def_454))
(define-fun .def_456 () Bool (and .def_174 .def_455))
(define-fun .def_457 () Bool (and .def_176 .def_456))
(define-fun .def_458 () Bool (and .def_178 .def_457))
(define-fun .def_459 () Bool (and .def_180 .def_458))
(define-fun .def_460 () Bool (and .def_182 .def_459))
(define-fun .def_461 () Bool (and .def_92 .def_460))
(define-fun .def_462 () Bool (and .def_185 .def_461))
(define-fun .def_463 () Bool (and .def_187 .def_462))
(define-fun .def_464 () Bool (and .def_445 .def_463))
(define-fun .def_465 () Bool (and .def_94 .def_464))
(define-fun .def_466 () Bool (and .def_98 .def_465))
(define-fun .def_470 () Bool (and .def_466 .def_469))
(define-fun .def_492 () Bool (and .def_470 .def_491))
(define-fun .def_641 () Bool (or .def_492 .def_640))
(define-fun .def_427 () Bool (and .def_68 .x.729))
(define-fun .def_428 () Bool (and .def_155 .def_427))
(define-fun .def_429 () Bool (and .def_157 .def_428))
(define-fun .def_430 () Bool (and .def_159 .def_429))
(define-fun .def_431 () Bool (and .def_76 .def_430))
(define-fun .def_432 () Bool (and .def_170 .def_431))
(define-fun .def_433 () Bool (and .def_87 .def_432))
(define-fun .def_434 () Bool (and .def_90 .def_433))
(define-fun .def_435 () Bool (and .def_174 .def_434))
(define-fun .def_436 () Bool (and .def_176 .def_435))
(define-fun .def_437 () Bool (and .def_178 .def_436))
(define-fun .def_438 () Bool (and .def_180 .def_437))
(define-fun .def_439 () Bool (and .def_182 .def_438))
(define-fun .def_440 () Bool (and .def_92 .def_439))
(define-fun .def_441 () Bool (and .def_185 .def_440))
(define-fun .def_442 () Bool (and .def_187 .def_441))
(define-fun .def_446 () Bool (and .def_442 .def_445))
(define-fun .def_447 () Bool (and .def_94 .def_446))
(define-fun .def_448 () Bool (and .def_98 .def_447))
(define-fun .def_642 () Bool (or .def_448 .def_641))
(define-fun .def_290 () Bool (not .loc.11))
(define-fun .def_643 () Bool (and .def_290 .def_642))
(define-fun .def_405 () Bool (and .def_155 .def_404))
(define-fun .def_406 () Bool (and .def_157 .def_405))
(define-fun .def_407 () Bool (and .def_159 .def_406))
(define-fun .def_408 () Bool (and .def_161 .def_407))
(define-fun .def_409 () Bool (and .def_81 .def_408))
(define-fun .def_410 () Bool (and .def_164 .def_409))
(define-fun .def_411 () Bool (and .def_83 .def_410))
(define-fun .def_412 () Bool (and .def_72 .def_411))
(define-fun .def_413 () Bool (and .def_74 .def_412))
(define-fun .def_414 () Bool (and .loc.9 .def_413))
(define-fun .def_415 () Bool (and .loc.10 .def_414))
(define-fun .def_416 () Bool (and .loc.11 .def_415))
(define-fun .def_417 () Bool (and .def_174 .def_416))
(define-fun .def_418 () Bool (and .def_176 .def_417))
(define-fun .def_419 () Bool (and .def_178 .def_418))
(define-fun .def_420 () Bool (and .def_180 .def_419))
(define-fun .def_421 () Bool (and .def_182 .def_420))
(define-fun .def_422 () Bool (and .def_92 .def_421))
(define-fun .def_423 () Bool (and .def_185 .def_422))
(define-fun .def_424 () Bool (and .def_187 .def_423))
(define-fun .def_425 () Bool (and .def_96 .def_424))
(define-fun .def_426 () Bool (and .def_98 .def_425))
(define-fun .def_644 () Bool (or .def_426 .def_643))
(define-fun .def_371 () Bool (and .def_72 .def_370))
(define-fun .def_389 () Bool (and .def_74 .def_371))
(define-fun .def_390 () Bool (and .loc.9 .def_389))
(define-fun .def_391 () Bool (and .loc.10 .def_390))
(define-fun .def_392 () Bool (and .loc.11 .def_391))
(define-fun .def_393 () Bool (and .def_174 .def_392))
(define-fun .def_394 () Bool (and .def_176 .def_393))
(define-fun .def_395 () Bool (and .def_178 .def_394))
(define-fun .def_396 () Bool (and .def_180 .def_395))
(define-fun .def_397 () Bool (and .def_182 .def_396))
(define-fun .def_398 () Bool (and .def_92 .def_397))
(define-fun .def_399 () Bool (and .def_185 .def_398))
(define-fun .def_400 () Bool (and .def_187 .def_399))
(define-fun .def_401 () Bool (and .def_96 .def_400))
(define-fun .def_402 () Bool (and .def_98 .def_401))
(define-fun .def_203 () Bool (<= 200000 .def_40))
(define-fun .def_257 () Bool (or .def_68 .def_203))
(define-fun .def_403 () Bool (and .def_257 .def_402))
(define-fun .def_645 () Bool (or .def_403 .def_644))
(define-fun .def_232 () Bool (= .def_40 .x.715))
(define-fun .def_153 () Bool (= .def_38 .x.714))
(define-fun .def_388 () Bool (and .def_153 .def_232))
(define-fun .def_646 () Bool (and .def_388 .def_645))
(define-fun .def_193 () Int (* (- 1) .x.715))
(define-fun .def_194 () Int (+ .def_40 .def_193))
(define-fun .def_195 () Bool (= .def_194 (- 1)))
(define-fun .def_386 () Bool (or .def_68 .def_195))
(define-fun .def_372 () Bool (and .def_87 .def_371))
(define-fun .def_373 () Bool (and .loc.10 .def_372))
(define-fun .def_374 () Bool (and .loc.11 .def_373))
(define-fun .def_375 () Bool (and .def_90 .def_374))
(define-fun .def_376 () Bool (and .def_174 .def_375))
(define-fun .def_377 () Bool (and .def_176 .def_376))
(define-fun .def_378 () Bool (and .def_178 .def_377))
(define-fun .def_379 () Bool (and .def_180 .def_378))
(define-fun .def_380 () Bool (and .def_182 .def_379))
(define-fun .def_381 () Bool (and .def_92 .def_380))
(define-fun .def_382 () Bool (and .def_185 .def_381))
(define-fun .def_383 () Bool (and .def_187 .def_382))
(define-fun .def_384 () Bool (and .def_96 .def_383))
(define-fun .def_385 () Bool (and .def_98 .def_384))
(define-fun .def_387 () Bool (and .def_385 .def_386))
(define-fun .def_647 () Bool (or .def_387 .def_646))
(define-fun .def_128 () Bool (= .x.715 0))
(define-fun .def_362 () Bool (or .def_68 .def_128))
(define-fun .def_154 () Bool (and .def_78 .def_153))
(define-fun .def_156 () Bool (and .def_154 .def_155))
(define-fun .def_158 () Bool (and .def_156 .def_157))
(define-fun .def_160 () Bool (and .def_158 .def_159))
(define-fun .def_162 () Bool (and .def_160 .def_161))
(define-fun .def_163 () Bool (and .def_81 .def_162))
(define-fun .def_165 () Bool (and .def_163 .def_164))
(define-fun .def_346 () Bool (and .def_83 .def_165))
(define-fun .def_347 () Bool (and .def_70 .def_346))
(define-fun .def_348 () Bool (and .def_74 .def_347))
(define-fun .def_349 () Bool (and .def_170 .def_348))
(define-fun .def_350 () Bool (and .loc.10 .def_349))
(define-fun .def_351 () Bool (and .loc.11 .def_350))
(define-fun .def_352 () Bool (and .def_90 .def_351))
(define-fun .def_353 () Bool (and .def_176 .def_352))
(define-fun .def_354 () Bool (and .def_178 .def_353))
(define-fun .def_355 () Bool (and .def_180 .def_354))
(define-fun .def_356 () Bool (and .def_182 .def_355))
(define-fun .def_357 () Bool (and .def_92 .def_356))
(define-fun .def_358 () Bool (and .def_185 .def_357))
(define-fun .def_359 () Bool (and .def_187 .def_358))
(define-fun .def_360 () Bool (and .def_96 .def_359))
(define-fun .def_361 () Bool (and .def_98 .def_360))
(define-fun .def_363 () Bool (and .def_361 .def_362))
(define-fun .def_648 () Bool (or .def_363 .def_647))
(define-fun .def_166 () Bool (= .def_66 .x.728))
(define-fun .def_79 () Bool (= .def_14 .x.702))
(define-fun .def_345 () Bool (and .def_79 .def_166))
(define-fun .def_649 () Bool (and .def_345 .def_648))
(define-fun .def_331 () Int (* 4 .x.715))
(define-fun .def_334 () Int (+ .def_331 .x.722))
(define-fun .def_333 () (Array Int Int) (select .def_14 .x.719))
(define-fun .def_335 () Int (select .def_333 .def_334))
(define-fun .def_336 () Int (+ .x.711 .def_331))
(define-fun .def_337 () (Array Int Int) (select .def_14 .x.724))
(define-fun .def_338 () (Array Int Int) (store .def_337 .def_336 .def_335))
(define-fun .def_339 () (Array Int (Array Int Int)) (store .def_14 .x.724 .def_338))
(define-fun .def_340 () Bool (= .x.702 .def_339))
(define-fun .def_304 () Bool (= .x.715 .x.717))
(define-fun .def_330 () Bool (not .def_304))
(define-fun .def_341 () Bool (and .def_330 .def_340))
(define-fun .def_342 () Bool (or .x.729 .def_341))
(define-fun .def_307 () Bool (and .def_154 .def_232))
(define-fun .def_308 () Bool (and .def_155 .def_307))
(define-fun .def_309 () Bool (and .def_157 .def_308))
(define-fun .def_310 () Bool (and .def_159 .def_309))
(define-fun .def_311 () Bool (and .def_161 .def_310))
(define-fun .def_312 () Bool (and .def_81 .def_311))
(define-fun .def_313 () Bool (and .def_164 .def_312))
(define-fun .def_314 () Bool (and .def_83 .def_313))
(define-fun .def_315 () Bool (and .def_72 .def_314))
(define-fun .def_316 () Bool (and .def_74 .def_315))
(define-fun .def_317 () Bool (and .loc.10 .def_316))
(define-fun .def_318 () Bool (and .def_90 .def_317))
(define-fun .def_319 () Bool (and .def_290 .def_318))
(define-fun .def_320 () Bool (and .def_174 .def_319))
(define-fun .def_321 () Bool (and .def_176 .def_320))
(define-fun .def_322 () Bool (and .def_178 .def_321))
(define-fun .def_323 () Bool (and .def_180 .def_322))
(define-fun .def_324 () Bool (and .def_182 .def_323))
(define-fun .def_325 () Bool (and .def_92 .def_324))
(define-fun .def_326 () Bool (and .def_185 .def_325))
(define-fun .def_327 () Bool (and .def_187 .def_326))
(define-fun .def_328 () Bool (and .def_96 .def_327))
(define-fun .def_329 () Bool (and .def_98 .def_328))
(define-fun .def_343 () Bool (and .def_329 .def_342))
(define-fun .def_204 () Bool (not .def_203))
(define-fun .def_302 () Bool (or .def_68 .def_204))
(define-fun .def_344 () Bool (and .def_302 .def_343))
(define-fun .def_650 () Bool (or .def_344 .def_649))
(define-fun .def_305 () Bool (or .x.729 .def_304))
(define-fun .def_80 () Bool (and .def_78 .def_79))
(define-fun .def_231 () Bool (and .def_80 .def_153))
(define-fun .def_233 () Bool (and .def_231 .def_232))
(define-fun .def_234 () Bool (and .def_155 .def_233))
(define-fun .def_235 () Bool (and .def_157 .def_234))
(define-fun .def_236 () Bool (and .def_159 .def_235))
(define-fun .def_237 () Bool (and .def_161 .def_236))
(define-fun .def_238 () Bool (and .def_81 .def_237))
(define-fun .def_239 () Bool (and .def_164 .def_238))
(define-fun .def_240 () Bool (and .def_166 .def_239))
(define-fun .def_241 () Bool (and .def_83 .def_240))
(define-fun .def_286 () Bool (and .def_72 .def_241))
(define-fun .def_287 () Bool (and .def_74 .def_286))
(define-fun .def_288 () Bool (and .loc.10 .def_287))
(define-fun .def_289 () Bool (and .def_90 .def_288))
(define-fun .def_291 () Bool (and .def_289 .def_290))
(define-fun .def_292 () Bool (and .def_174 .def_291))
(define-fun .def_293 () Bool (and .def_176 .def_292))
(define-fun .def_294 () Bool (and .def_178 .def_293))
(define-fun .def_295 () Bool (and .def_180 .def_294))
(define-fun .def_296 () Bool (and .def_182 .def_295))
(define-fun .def_297 () Bool (and .def_92 .def_296))
(define-fun .def_298 () Bool (and .def_185 .def_297))
(define-fun .def_299 () Bool (and .def_187 .def_298))
(define-fun .def_300 () Bool (and .def_96 .def_299))
(define-fun .def_301 () Bool (and .def_98 .def_300))
(define-fun .def_303 () Bool (and .def_301 .def_302))
(define-fun .def_306 () Bool (and .def_303 .def_305))
(define-fun .def_651 () Bool (or .def_306 .def_650))
(define-fun .def_259 () Bool (and .def_68 .def_79))
(define-fun .def_260 () Bool (and .def_78 .def_259))
(define-fun .def_261 () Bool (and .def_153 .def_260))
(define-fun .def_262 () Bool (and .def_232 .def_261))
(define-fun .def_263 () Bool (and .def_155 .def_262))
(define-fun .def_264 () Bool (and .def_157 .def_263))
(define-fun .def_265 () Bool (and .def_159 .def_264))
(define-fun .def_266 () Bool (and .def_161 .def_265))
(define-fun .def_267 () Bool (and .def_81 .def_266))
(define-fun .def_268 () Bool (and .def_164 .def_267))
(define-fun .def_269 () Bool (and .def_166 .def_268))
(define-fun .def_270 () Bool (and .def_83 .def_269))
(define-fun .def_271 () Bool (and .def_74 .def_270))
(define-fun .def_272 () Bool (and .def_170 .def_271))
(define-fun .def_273 () Bool (and .loc.9 .def_272))
(define-fun .def_274 () Bool (and .loc.11 .def_273))
(define-fun .def_275 () Bool (and .def_174 .def_274))
(define-fun .def_276 () Bool (and .def_176 .def_275))
(define-fun .def_277 () Bool (and .def_178 .def_276))
(define-fun .def_278 () Bool (and .def_180 .def_277))
(define-fun .def_279 () Bool (and .def_182 .def_278))
(define-fun .def_280 () Bool (and .def_92 .def_279))
(define-fun .def_281 () Bool (and .def_185 .def_280))
(define-fun .def_282 () Bool (and .def_187 .def_281))
(define-fun .def_283 () Bool (and .def_94 .def_282))
(define-fun .def_284 () Bool (and .def_96 .def_283))
(define-fun .def_285 () Bool (and .def_98 .def_284))
(define-fun .def_652 () Bool (or .def_285 .def_651))
(define-fun .def_242 () Bool (and .def_74 .def_241))
(define-fun .def_243 () Bool (and .def_170 .def_242))
(define-fun .def_244 () Bool (and .loc.9 .def_243))
(define-fun .def_245 () Bool (and .loc.11 .def_244))
(define-fun .def_246 () Bool (and .def_174 .def_245))
(define-fun .def_247 () Bool (and .def_176 .def_246))
(define-fun .def_248 () Bool (and .def_178 .def_247))
(define-fun .def_249 () Bool (and .def_180 .def_248))
(define-fun .def_250 () Bool (and .def_182 .def_249))
(define-fun .def_251 () Bool (and .def_92 .def_250))
(define-fun .def_252 () Bool (and .def_185 .def_251))
(define-fun .def_253 () Bool (and .def_187 .def_252))
(define-fun .def_254 () Bool (and .def_94 .def_253))
(define-fun .def_255 () Bool (and .def_96 .def_254))
(define-fun .def_256 () Bool (and .def_98 .def_255))
(define-fun .def_258 () Bool (and .def_256 .def_257))
(define-fun .def_653 () Bool (or .def_258 .def_652))
(define-fun .def_229 () Bool (= .def_42 .x.716))
(define-fun .def_227 () Bool (= .def_30 .x.710))
(define-fun .def_226 () Bool (= .def_36 .x.713))
(define-fun .def_228 () Bool (and .def_226 .def_227))
(define-fun .def_230 () Bool (and .def_228 .def_229))
(define-fun .def_654 () Bool (and .def_230 .def_653))
(define-fun .def_212 () Int (* 4 .def_40))
(define-fun .def_213 () Int (+ .def_32 .def_212))
(define-fun .def_216 () Int (+ .def_212 .def_54))
(define-fun .def_215 () (Array Int Int) (select .def_14 .def_48))
(define-fun .def_217 () (Array Int Int) (store .def_215 .def_216 .def_30))
(define-fun .def_218 () (Array Int (Array Int Int)) (store .def_14 .def_48 .def_217))
(define-fun .def_219 () (Array Int Int) (select .def_218 .def_58))
(define-fun .def_220 () (Array Int Int) (store .def_219 .def_213 .def_36))
(define-fun .def_221 () (Array Int (Array Int Int)) (store .def_218 .def_58 .def_220))
(define-fun .def_222 () Bool (= .x.702 .def_221))
(define-fun .def_209 () Bool (<= (- 2147483648) .def_36))
(define-fun .def_207 () Bool (<= (- 2147483648) .def_30))
(define-fun .def_200 () Bool (<= .def_30 2147483647))
(define-fun .def_199 () Bool (<= .def_36 2147483647))
(define-fun .def_201 () Bool (and .def_199 .def_200))
(define-fun .def_205 () Bool (and .def_201 .def_204))
(define-fun .def_208 () Bool (and .def_205 .def_207))
(define-fun .def_210 () Bool (and .def_208 .def_209))
(define-fun .def_223 () Bool (and .def_210 .def_222))
(define-fun .def_224 () Bool (or .def_68 .def_223))
(define-fun .def_196 () Bool (or .x.729 .def_195))
(define-fun .def_167 () Bool (and .def_165 .def_166))
(define-fun .def_168 () Bool (and .def_83 .def_167))
(define-fun .def_169 () Bool (and .def_74 .def_168))
(define-fun .def_171 () Bool (and .def_169 .def_170))
(define-fun .def_172 () Bool (and .loc.11 .def_171))
(define-fun .def_173 () Bool (and .def_90 .def_172))
(define-fun .def_175 () Bool (and .def_173 .def_174))
(define-fun .def_177 () Bool (and .def_175 .def_176))
(define-fun .def_179 () Bool (and .def_177 .def_178))
(define-fun .def_181 () Bool (and .def_179 .def_180))
(define-fun .def_183 () Bool (and .def_181 .def_182))
(define-fun .def_184 () Bool (and .def_92 .def_183))
(define-fun .def_186 () Bool (and .def_184 .def_185))
(define-fun .def_188 () Bool (and .def_186 .def_187))
(define-fun .def_189 () Bool (and .def_94 .def_188))
(define-fun .def_190 () Bool (and .def_96 .def_189))
(define-fun .def_191 () Bool (and .def_98 .def_190))
(define-fun .def_197 () Bool (and .def_191 .def_196))
(define-fun .def_225 () Bool (and .def_197 .def_224))
(define-fun .def_655 () Bool (or .def_225 .def_654))
(define-fun .def_151 () Bool (= .def_26 .x.708))
(define-fun .def_149 () Bool (= .def_18 .x.704))
(define-fun .def_148 () Bool (= .def_22 .x.706))
(define-fun .def_150 () Bool (and .def_148 .def_149))
(define-fun .def_152 () Bool (and .def_150 .def_151))
(define-fun .def_656 () Bool (and .def_152 .def_655))
(define-fun .def_143 () Bool (= .x.708 0))
(define-fun .def_142 () Bool (= .x.704 0))
(define-fun .def_144 () Bool (and .def_142 .def_143))
(define-fun .def_140 () (Array Int Int) (store .def_10 0 0))
(define-fun .def_141 () Bool (= .def_105 .def_140))
(define-fun .def_145 () Bool (and .def_141 .def_144))
(define-fun .def_146 () Bool (or .def_68 .def_145))
(define-fun .def_124 () Bool (<= .x.699 .x.719))
(define-fun .def_125 () Bool (not .def_124))
(define-fun .def_122 () Bool (<= .x.699 .x.724))
(define-fun .def_123 () Bool (not .def_122))
(define-fun .def_126 () Bool (and .def_123 .def_125))
(define-fun .def_121 () Bool (= .x.711 0))
(define-fun .def_127 () Bool (and .def_121 .def_126))
(define-fun .def_129 () Bool (and .def_127 .def_128))
(define-fun .def_120 () Bool (= .x.717 150000))
(define-fun .def_130 () Bool (and .def_120 .def_129))
(define-fun .def_118 () Bool (= .x.722 0))
(define-fun .def_131 () Bool (and .def_118 .def_130))
(define-fun .def_116 () Bool (= .x.724 0))
(define-fun .def_117 () Bool (not .def_116))
(define-fun .def_132 () Bool (and .def_117 .def_131))
(define-fun .def_114 () Bool (= .x.719 0))
(define-fun .def_115 () Bool (not .def_114))
(define-fun .def_133 () Bool (and .def_115 .def_132))
(define-fun .def_112 () Int (select .def_105 .x.719))
(define-fun .def_113 () Bool (= .def_112 0))
(define-fun .def_134 () Bool (and .def_113 .def_133))
(define-fun .def_106 () (Array Int Int) (store .def_105 .x.719 1))
(define-fun .def_110 () Int (select .def_106 .x.724))
(define-fun .def_111 () Bool (= .def_110 0))
(define-fun .def_135 () Bool (and .def_111 .def_134))
(define-fun .def_107 () (Array Int Int) (store .def_106 .x.724 1))
(define-fun .def_108 () Bool (= .x.700 .def_107))
(define-fun .def_136 () Bool (and .def_108 .def_135))
(define-fun .def_101 () (Array Int Int) (store .def_22 .x.719 800000))
(define-fun .def_102 () (Array Int Int) (store .def_101 .x.724 800000))
(define-fun .def_103 () Bool (= .x.706 .def_102))
(define-fun .def_137 () Bool (and .def_103 .def_136))
(define-fun .def_138 () Bool (or .x.729 .def_137))
(define-fun .def_82 () Bool (and .def_80 .def_81))
(define-fun .def_84 () Bool (and .def_82 .def_83))
(define-fun .def_85 () Bool (and .def_70 .def_84))
(define-fun .def_86 () Bool (and .def_72 .def_85))
(define-fun .def_88 () Bool (and .def_86 .def_87))
(define-fun .def_89 () Bool (and .loc.11 .def_88))
(define-fun .def_91 () Bool (and .def_89 .def_90))
(define-fun .def_93 () Bool (and .def_91 .def_92))
(define-fun .def_95 () Bool (and .def_93 .def_94))
(define-fun .def_97 () Bool (and .def_95 .def_96))
(define-fun .def_99 () Bool (and .def_97 .def_98))
(define-fun .def_139 () Bool (and .def_99 .def_138))
(define-fun .def_147 () Bool (and .def_139 .def_146))
(define-fun .def_657 () Bool (or .def_147 .def_656))
(define-fun .def_669 () Bool (! (and .def_657 .def_668) :trans true))
(define-fun .def_685 () Bool (and .def_72 .def_174))
(define-fun .def_686 () Bool (and .def_87 .def_685))
(define-fun .def_687 () Bool (and .def_76 .def_686))
(define-fun .def_688 () Bool (and .def_68 .def_687))
(define-fun .def_689 () Bool (! (not .def_688) :invar-property 0))
(assert true)
